param n := 249;
param c := 3000
param : V : p w :=
   0	 454	 444
   1	 274	 264
   2	 302	 292
   3	 407	 397
   4	 304	 294
   5	 319	 309
   6	 373	 363
   7	 313	 303
   8	 344	 334
   9	 424	 414
  10	 288	 278
  11	 318	 308
  12	 397	 387
  13	 299	 289
  14	 334	 324
  15	 464	 454
  16	 280	 270
  17	 286	 276
  18	 501	 491
  19	 263	 253
  20	 266	 256
  21	 430	 420
  22	 286	 276
  23	 314	 304
  24	 505	 495
  25	 261	 251
  26	 264	 254
  27	 452	 442
  28	 286	 276
  29	 292	 282
  30	 384	 374
  31	 270	 260
  32	 376	 366
  33	 499	 489
  34	 260	 250
  35	 271	 261
  36	 504	 494
  37	 261	 251
  38	 265	 255
  39	 494	 484
  40	 261	 251
  41	 275	 265
  42	 476	 466
  43	 261	 251
  44	 293	 283
  45	 509	 499
  46	 260	 250
  47	 261	 251
  48	 428	 418
  49	 280	 270
  50	 322	 312
  51	 429	 419
  52	 280	 270
  53	 321	 311
  54	 390	 380
  55	 291	 281
  56	 349	 339
  57	 492	 482
  58	 261	 251
  59	 277	 267
  60	 499	 489
  61	 261	 251
  62	 270	 260
  63	 417	 407
  64	 282	 272
  65	 331	 321
  66	 377	 367
  67	 313	 303
  68	 340	 330
  69	 366	 356
  70	 299	 289
  71	 365	 355
  72	 378	 368
  73	 275	 265
  74	 377	 367
  75	 502	 492
  76	 262	 252
  77	 266	 256
  78	 458	 448
  79	 267	 257
  80	 305	 295
  81	 484	 474
  82	 264	 254
  83	 282	 272
  84	 422	 412
  85	 296	 286
  86	 312	 302
  87	 468	 458
  88	 280	 270
  89	 282	 272
  90	 486	 476
  91	 264	 254
  92	 280	 270
  93	 498	 488
  94	 265	 255
  95	 267	 257
  96	 499	 489
  97	 264	 254
  98	 267	 257
  99	 391	 381
 100	 282	 272
 101	 357	 347
 102	 440	 430
 103	 269	 259
 104	 321	 311
 105	 383	 373
 106	 308	 298
 107	 339	 329
 108	 482	 472
 109	 265	 255
 110	 283	 273
 111	 473	 463
 112	 269	 259
 113	 288	 278
 114	 435	 425
 115	 280	 270
 116	 315	 305
 117	 492	 482
 118	 263	 253
 119	 275	 265
 120	 430	 420
 121	 273	 263
 122	 327	 317
 123	 487	 477
 124	 263	 253
 125	 280	 270
 126	 441	 431
 127	 266	 256
 128	 323	 313
 129	 395	 385
 130	 263	 253
 131	 372	 362
 132	 452	 442
 133	 288	 278
 134	 290	 280
 135	 373	 363
 136	 323	 313
 137	 334	 324
 138	 401	 391
 139	 279	 269
 140	 350	 340
 141	 445	 435
 142	 270	 260
 143	 315	 305
 144	 405	 395
 145	 274	 264
 146	 351	 341
 147	 395	 385
 148	 298	 288
 149	 337	 327
 150	 453	 443
 151	 268	 258
 152	 309	 299
 153	 461	 451
 154	 280	 270
 155	 289	 279
 156	 496	 486
 157	 260	 250
 158	 274	 264
 159	 434	 424
 160	 291	 281
 161	 305	 295
 162	 381	 371
 163	 292	 282
 164	 357	 347
 165	 434	 424
 166	 283	 273
 167	 313	 303
 168	 374	 364
 169	 268	 258
 170	 388	 378
 171	 410	 400
 172	 262	 252
 173	 358	 348
 174	 437	 427
 175	 285	 275
 176	 308	 298
 177	 408	 398
 178	 273	 263
 179	 349	 339
 180	 468	 458
 181	 276	 266
 182	 286	 276
 183	 424	 414
 184	 292	 282
 185	 314	 304
 186	 402	 392
 187	 285	 275
 188	 343	 333
 189	 471	 461
 190	 267	 257
 191	 292	 282
 192	 403	 393
 193	 292	 282
 194	 335	 325
 195	 451	 441
 196	 279	 269
 197	 300	 290
 198	 415	 405
 199	 269	 259
 200	 346	 336
 201	 406	 396
 202	 305	 295
 203	 319	 309
 204	 497	 487
 205	 265	 255
 206	 268	 258
 207	 383	 373
 208	 275	 265
 209	 372	 362
 210	 469	 459
 211	 266	 256
 212	 295	 285
 213	 448	 438
 214	 287	 277
 215	 295	 285
 216	 415	 405
 217	 282	 272
 218	 333	 323
 219	 483	 473
 220	 260	 250
 221	 287	 277
 222	 461	 451
 223	 273	 263
 224	 296	 286
 225	 401	 391
 226	 282	 272
 227	 347	 337
 228	 454	 444
 229	 274	 264
 230	 302	 292
 231	 406	 396
 232	 293	 283
 233	 331	 321
 234	 364	 354
 235	 295	 285
 236	 371	 361
 237	 403	 393
 238	 299	 289
 239	 328	 318
 240	 503	 493
 241	 260	 250
 242	 267	 257
 243	 379	 369
 244	 306	 296
 245	 345	 335
 246	 369	 359
 247	 294	 284
 248	 367	 357
;

set E :=
   0	   7
   0	  25
   0	  37
   0	  49
   0	  83
   0	  84
   0	  88
   0	  90
   0	  98
   0	 103
   0	 107
   0	 117
   0	 136
   0	 148
   0	 165
   0	 168
   0	 188
   0	 208
   0	 209
   0	 231
   0	 235
   0	 244
   1	  35
   1	  38
   1	  49
   1	  64
   1	  65
   1	  77
   1	  78
   1	  84
   1	  95
   1	 107
   1	 108
   1	 110
   1	 119
   1	 134
   1	 140
   1	 145
   1	 150
   1	 154
   1	 166
   1	 177
   1	 199
   1	 204
   1	 206
   1	 222
   1	 243
   1	 248
   2	   7
   2	  11
   2	  15
   2	  20
   2	  26
   2	  28
   2	  30
   2	  45
   2	  46
   2	  50
   2	  63
   2	  84
   2	  85
   2	  97
   2	 100
   2	 121
   2	 134
   2	 139
   2	 148
   2	 155
   2	 196
   2	 202
   2	 207
   2	 209
   2	 227
   2	 240
   2	 248
   3	  35
   3	  41
   3	  55
   3	  76
   3	  90
   3	  94
   3	  98
   3	 101
   3	 110
   3	 129
   3	 132
   3	 133
   3	 134
   3	 170
   3	 175
   3	 182
   3	 188
   3	 206
   3	 213
   3	 222
   3	 228
   4	  13
   4	  16
   4	  20
   4	  22
   4	  53
   4	  59
   4	  63
   4	  68
   4	  70
   4	  72
   4	  85
   4	 107
   4	 111
   4	 145
   4	 183
   4	 198
   4	 233
   5	  26
   5	  38
   5	  42
   5	  45
   5	  66
   5	  69
   5	  72
   5	  86
   5	  95
   5	 105
   5	 107
   5	 152
   5	 153
   5	 163
   5	 166
   5	 182
   5	 183
   5	 189
   5	 229
   5	 235
   5	 241
   5	 242
   5	 246
   6	   7
   6	  17
   6	  28
   6	  38
   6	  52
   6	  56
   6	  58
   6	  64
   6	  81
   6	  84
   6	 103
   6	 112
   6	 114
   6	 141
   6	 165
   6	 169
   6	 182
   6	 218
   6	 237
   6	 239
   7	  28
   7	  32
   7	  40
   7	  44
   7	  59
   7	  79
   7	  90
   7	  94
   7	 114
   7	 145
   7	 169
   7	 174
   7	 202
   7	 226
   8	  11
   8	  39
   8	  51
   8	  55
   8	  64
   8	  68
   8	  69
   8	  76
   8	  93
   8	 122
   8	 125
   8	 129
   8	 134
   8	 139
   8	 144
   8	 145
   8	 149
   8	 151
   8	 170
   8	 200
   8	 204
   8	 219
   8	 248
   9	  24
   9	  37
   9	  45
   9	  48
   9	  58
   9	  64
   9	  73
   9	  81
   9	  83
   9	  89
   9	 109
   9	 113
   9	 126
   9	 140
   9	 145
   9	 150
   9	 161
   9	 162
   9	 172
   9	 179
   9	 180
   9	 195
   9	 207
   9	 212
   9	 214
   9	 219
   9	 223
   9	 236
   9	 243
  10	  16
  10	  17
  10	  26
  10	  28
  10	  46
  10	  48
  10	  56
  10	  79
  10	  81
  10	  82
  10	  89
  10	 103
  10	 127
  10	 131
  10	 132
  10	 135
  10	 142
  10	 147
  10	 172
  10	 177
  10	 195
  10	 196
  10	 202
  10	 205
  10	 222
  10	 232
  10	 238
  11	  13
  11	  17
  11	  49
  11	  61
  11	  64
  11	  69
  11	  71
  11	  72
  11	  98
  11	 103
  11	 116
  11	 125
  11	 144
  11	 153
  11	 157
  11	 196
  11	 215
  11	 219
  11	 222
  11	 231
  11	 241
  11	 244
  11	 247
  12	  26
  12	  36
  12	  37
  12	  45
  12	  47
  12	  57
  12	  63
  12	  71
  12	  74
  12	  79
  12	  95
  12	  97
  12	 103
  12	 117
  12	 120
  12	 122
  12	 126
  12	 131
  12	 142
  12	 169
  12	 173
  12	 175
  12	 177
  12	 193
  12	 208
  12	 209
  12	 219
  12	 239
  12	 245
  12	 248
  13	  17
  13	  18
  13	  20
  13	  24
  13	  28
  13	  29
  13	  59
  13	  60
  13	  62
  13	  68
  13	  87
  13	  95
  13	 108
  13	 111
  13	 114
  13	 124
  13	 135
  13	 136
  13	 144
  13	 157
  13	 167
  13	 181
  13	 186
  13	 188
  13	 189
  13	 194
  13	 195
  13	 208
  13	 225
  14	  15
  14	  41
  14	  50
  14	  56
  14	  62
  14	  80
  14	  82
  14	  83
  14	  87
  14	  97
  14	  99
  14	 119
  14	 150
  14	 157
  14	 169
  14	 180
  14	 185
  14	 189
  14	 191
  14	 202
  14	 215
  14	 217
  14	 234
  14	 243
  15	  16
  15	  21
  15	  34
  15	  43
  15	  51
  15	  52
  15	  70
  15	  79
  15	  91
  15	 100
  15	 119
  15	 125
  15	 150
  15	 152
  15	 155
  15	 158
  15	 174
  15	 176
  15	 213
  15	 216
  15	 220
  15	 241
  16	  20
  16	  30
  16	  36
  16	  45
  16	  63
  16	  68
  16	  69
  16	  75
  16	  76
  16	  91
  16	  93
  16	  94
  16	  96
  16	 105
  16	 134
  16	 136
  16	 139
  16	 144
  16	 151
  16	 163
  16	 172
  16	 178
  16	 186
  16	 200
  16	 218
  16	 223
  16	 230
  17	  20
  17	  22
  17	  27
  17	  28
  17	  31
  17	  37
  17	  42
  17	  46
  17	  48
  17	  61
  17	  64
  17	  67
  17	  78
  17	  88
  17	  93
  17	  94
  17	  97
  17	  98
  17	 106
  17	 122
  17	 124
  17	 143
  17	 150
  17	 152
  17	 159
  17	 182
  17	 184
  17	 188
  17	 193
  17	 198
  17	 204
  17	 209
  17	 238
  18	  42
  18	  89
  18	  90
  18	  94
  18	  95
  18	 104
  18	 109
  18	 114
  18	 118
  18	 124
  18	 135
  18	 154
  18	 176
  18	 186
  18	 191
  18	 192
  18	 220
  18	 228
  18	 229
  18	 240
  18	 244
  19	  21
  19	  29
  19	  54
  19	  55
  19	  61
  19	  73
  19	  74
  19	  89
  19	  94
  19	  96
  19	 136
  19	 142
  19	 143
  19	 159
  19	 171
  19	 191
  19	 196
  19	 197
  19	 205
  19	 209
  19	 219
  19	 233
  19	 234
  20	  24
  20	  31
  20	  47
  20	  49
  20	  64
  20	  67
  20	  84
  20	  88
  20	  91
  20	 105
  20	 110
  20	 115
  20	 116
  20	 124
  20	 126
  20	 127
  20	 131
  20	 141
  20	 149
  20	 164
  20	 168
  20	 177
  20	 179
  20	 192
  20	 194
  20	 201
  20	 203
  20	 214
  20	 226
  20	 231
  20	 235
  20	 241
  20	 247
  21	  26
  21	  37
  21	  40
  21	  48
  21	  53
  21	  54
  21	  64
  21	  89
  21	 112
  21	 114
  21	 121
  21	 125
  21	 135
  21	 139
  21	 151
  21	 162
  21	 168
  21	 169
  21	 185
  21	 186
  21	 196
  21	 232
  21	 237
  21	 245
  22	  25
  22	  41
  22	  44
  22	  57
  22	  67
  22	  75
  22	  81
  22	  85
  22	 104
  22	 111
  22	 152
  22	 159
  22	 163
  22	 169
  22	 188
  22	 190
  22	 200
  22	 203
  22	 246
  23	  24
  23	  25
  23	  28
  23	  36
  23	  43
  23	  55
  23	  67
  23	  89
  23	 104
  23	 116
  23	 119
  23	 120
  23	 125
  23	 127
  23	 129
  23	 141
  23	 154
  23	 165
  23	 191
  23	 206
  23	 209
  23	 213
  23	 222
  23	 224
  23	 231
  23	 236
  23	 239
  23	 242
  24	  32
  24	  39
  24	  44
  24	  45
  24	  57
  24	  82
  24	  96
  24	  99
  24	 102
  24	 119
  24	 130
  24	 143
  24	 151
  24	 183
  24	 191
  24	 196
  24	 200
  24	 244
  25	  43
  25	  50
  25	  68
  25	  73
  25	  76
  25	  79
  25	  88
  25	 105
  25	 119
  25	 123
  25	 136
  25	 141
  25	 144
  25	 145
  25	 155
  25	 161
  25	 171
  25	 180
  25	 184
  25	 194
  25	 207
  25	 214
  25	 217
  25	 230
  25	 241
  26	  32
  26	  37
  26	  38
  26	  44
  26	  55
  26	  75
  26	  98
  26	 109
  26	 113
  26	 124
  26	 133
  26	 154
  26	 159
  26	 179
  26	 187
  26	 189
  26	 219
  26	 227
  27	  31
  27	  33
  27	  36
  27	  50
  27	  72
  27	  84
  27	  91
  27	  96
  27	 102
  27	 104
  27	 116
  27	 166
  27	 179
  27	 198
  27	 218
  27	 222
  27	 227
  27	 231
  27	 232
  27	 241
  28	  37
  28	  73
  28	  81
  28	  84
  28	 106
  28	 113
  28	 124
  28	 134
  28	 152
  28	 156
  28	 158
  28	 160
  28	 161
  28	 165
  28	 176
  28	 190
  28	 192
  28	 198
  28	 201
  28	 210
  28	 211
  28	 222
  28	 230
  29	  34
  29	  53
  29	  59
  29	  67
  29	  74
  29	 118
  29	 124
  29	 131
  29	 141
  29	 155
  29	 167
  29	 178
  29	 179
  29	 183
  29	 185
  29	 188
  29	 189
  29	 193
  29	 224
  29	 229
  29	 235
  29	 246
  29	 247
  30	  35
  30	  40
  30	  42
  30	  44
  30	  50
  30	  59
  30	  66
  30	  69
  30	  76
  30	  82
  30	 112
  30	 117
  30	 138
  30	 140
  30	 164
  30	 167
  30	 170
  30	 186
  30	 193
  30	 195
  30	 200
  30	 204
  30	 207
  30	 210
  30	 213
  30	 221
  30	 226
  30	 230
  30	 238
  31	  34
  31	  42
  31	  52
  31	  81
  31	 106
  31	 112
  31	 115
  31	 119
  31	 130
  31	 155
  31	 164
  31	 175
  31	 179
  31	 191
  31	 197
  31	 217
  31	 223
  31	 226
  31	 229
  31	 245
  32	  35
  32	  41
  32	  49
  32	  50
  32	  53
  32	  58
  32	  59
  32	  66
  32	  72
  32	 125
  32	 127
  32	 149
  32	 153
  32	 154
  32	 155
  32	 156
  32	 168
  32	 169
  32	 172
  32	 181
  32	 185
  32	 186
  32	 196
  32	 203
  32	 205
  32	 216
  32	 228
  32	 230
  32	 235
  32	 248
  33	  36
  33	  50
  33	  53
  33	  69
  33	  92
  33	  95
  33	  99
  33	 101
  33	 115
  33	 127
  33	 131
  33	 135
  33	 137
  33	 146
  33	 156
  33	 177
  33	 216
  33	 222
  33	 240
  34	  40
  34	  44
  34	  62
  34	  74
  34	  91
  34	  94
  34	 136
  34	 138
  34	 150
  34	 152
  34	 173
  34	 175
  34	 178
  34	 180
  34	 181
  34	 184
  34	 186
  34	 199
  34	 200
  34	 204
  34	 224
  34	 225
  34	 238
  34	 239
  34	 241
  35	  49
  35	  59
  35	  64
  35	  76
  35	  86
  35	  96
  35	  98
  35	 112
  35	 116
  35	 122
  35	 136
  35	 138
  35	 142
  35	 153
  35	 154
  35	 170
  35	 182
  35	 207
  35	 211
  35	 216
  35	 217
  35	 228
  35	 236
  36	  38
  36	  39
  36	  41
  36	  52
  36	  66
  36	  98
  36	 125
  36	 132
  36	 137
  36	 141
  36	 157
  36	 158
  36	 171
  36	 176
  36	 182
  36	 187
  36	 201
  36	 206
  36	 209
  36	 228
  36	 229
  36	 238
  36	 239
  37	  57
  37	  63
  37	  79
  37	  84
  37	 122
  37	 124
  37	 127
  37	 136
  37	 137
  37	 144
  37	 148
  37	 153
  37	 159
  37	 162
  37	 168
  37	 170
  37	 184
  37	 195
  37	 210
  37	 214
  37	 219
  38	  43
  38	  45
  38	  66
  38	  69
  38	  72
  38	  81
  38	  88
  38	  95
  38	 113
  38	 119
  38	 121
  38	 126
  38	 133
  38	 135
  38	 136
  38	 139
  38	 142
  38	 144
  38	 154
  38	 160
  38	 162
  38	 167
  38	 174
  38	 176
  38	 177
  38	 192
  38	 193
  38	 199
  38	 204
  38	 212
  38	 215
  38	 230
  38	 244
  38	 247
  39	  44
  39	  57
  39	  58
  39	  68
  39	  69
  39	  82
  39	  85
  39	  96
  39	 109
  39	 117
  39	 118
  39	 124
  39	 131
  39	 142
  39	 146
  39	 147
  39	 151
  39	 190
  39	 195
  39	 197
  39	 222
  39	 223
  39	 231
  39	 233
  39	 235
  40	  44
  40	  55
  40	  57
  40	  73
  40	  77
  40	  85
  40	  86
  40	  90
  40	  92
  40	 123
  40	 134
  40	 135
  40	 144
  40	 149
  40	 167
  40	 173
  40	 195
  40	 203
  40	 228
  40	 234
  41	  42
  41	  56
  41	  71
  41	  76
  41	 103
  41	 107
  41	 109
  41	 110
  41	 171
  41	 200
  41	 218
  41	 223
  41	 225
  41	 246
  42	  44
  42	  49
  42	  50
  42	  57
  42	  68
  42	  79
  42	 109
  42	 118
  42	 125
  42	 135
  42	 148
  42	 153
  42	 176
  42	 188
  42	 195
  42	 204
  42	 222
  42	 225
  42	 242
  43	  45
  43	  51
  43	  53
  43	  67
  43	  87
  43	  95
  43	  96
  43	  97
  43	 102
  43	 103
  43	 119
  43	 120
  43	 139
  43	 149
  43	 160
  43	 161
  43	 168
  43	 172
  43	 183
  43	 186
  43	 202
  43	 208
  43	 227
  43	 230
  43	 236
  44	  63
  44	  83
  44	  90
  44	  98
  44	 118
  44	 123
  44	 139
  44	 169
  44	 176
  44	 177
  44	 227
  44	 237
  44	 242
  45	  49
  45	  51
  45	  56
  45	  62
  45	  65
  45	  73
  45	  81
  45	 102
  45	 103
  45	 110
  45	 147
  45	 156
  45	 171
  45	 174
  45	 208
  45	 236
  46	  64
  46	  85
  46	  96
  46	 106
  46	 117
  46	 131
  46	 138
  46	 145
  46	 188
  46	 193
  46	 206
  46	 207
  46	 216
  46	 228
  46	 242
  47	  55
  47	  61
  47	  86
  47	  92
  47	  99
  47	 103
  47	 106
  47	 107
  47	 110
  47	 116
  47	 120
  47	 121
  47	 132
  47	 139
  47	 149
  47	 152
  47	 157
  47	 161
  47	 167
  47	 191
  47	 229
  47	 244
  48	  58
  48	  66
  48	  67
  48	  71
  48	  80
  48	  82
  48	 107
  48	 120
  48	 141
  48	 148
  48	 155
  48	 158
  48	 163
  48	 187
  48	 195
  48	 201
  48	 207
  48	 209
  48	 243
  49	  57
  49	  64
  49	  88
  49	  98
  49	 102
  49	 115
  49	 121
  49	 143
  49	 152
  49	 161
  49	 175
  49	 178
  49	 180
  49	 206
  49	 216
  49	 222
  49	 230
  49	 238
  49	 242
  50	  76
  50	  87
  50	 101
  50	 106
  50	 111
  50	 118
  50	 122
  50	 126
  50	 136
  50	 175
  50	 177
  50	 179
  50	 186
  50	 192
  50	 226
  50	 233
  50	 234
  50	 238
  50	 239
  51	  52
  51	  53
  51	  62
  51	  65
  51	  69
  51	  80
  51	  83
  51	 101
  51	 110
  51	 133
  51	 147
  51	 157
  51	 161
  51	 179
  51	 189
  51	 199
  51	 212
  51	 213
  51	 218
  51	 222
  51	 225
  51	 229
  51	 241
  51	 243
  52	  62
  52	  68
  52	  69
  52	  74
  52	  75
  52	  99
  52	 114
  52	 118
  52	 125
  52	 135
  52	 146
  52	 147
  52	 153
  52	 154
  52	 155
  52	 158
  52	 174
  52	 193
  52	 211
  52	 221
  52	 228
  52	 235
  52	 238
  52	 240
  52	 242
  53	  59
  53	  65
  53	  72
  53	  73
  53	  86
  53	  97
  53	  99
  53	 107
  53	 110
  53	 126
  53	 129
  53	 131
  53	 133
  53	 173
  53	 176
  53	 185
  53	 210
  53	 215
  53	 223
  53	 225
  53	 231
  53	 246
  54	  71
  54	  87
  54	  88
  54	 102
  54	 106
  54	 123
  54	 135
  54	 146
  54	 170
  54	 198
  54	 220
  54	 226
  54	 233
  54	 237
  55	  59
  55	  70
  55	  77
  55	  86
  55	  91
  55	 111
  55	 116
  55	 125
  55	 131
  55	 133
  55	 142
  55	 157
  55	 168
  55	 171
  55	 179
  55	 180
  55	 182
  55	 206
  55	 222
  55	 233
  55	 234
  55	 235
  56	  59
  56	  60
  56	  64
  56	  83
  56	  87
  56	  92
  56	 101
  56	 105
  56	 108
  56	 112
  56	 113
  56	 150
  56	 152
  56	 186
  56	 204
  56	 205
  56	 215
  56	 231
  57	  70
  57	  99
  57	 102
  57	 115
  57	 117
  57	 125
  57	 141
  57	 144
  57	 145
  57	 146
  57	 153
  57	 159
  57	 167
  57	 179
  57	 180
  57	 181
  57	 201
  57	 243
  57	 247
  58	  69
  58	  72
  58	  75
  58	 105
  58	 125
  58	 131
  58	 137
  58	 146
  58	 171
  58	 174
  58	 175
  58	 179
  58	 182
  58	 202
  58	 207
  58	 217
  59	  66
  59	 111
  59	 112
  59	 116
  59	 132
  59	 150
  59	 159
  59	 175
  59	 187
  59	 188
  59	 189
  59	 194
  59	 197
  59	 198
  59	 203
  59	 205
  59	 209
  59	 216
  59	 217
  59	 229
  59	 231
  59	 236
  59	 244
  60	  68
  60	  74
  60	  77
  60	  89
  60	  98
  60	 106
  60	 118
  60	 119
  60	 127
  60	 139
  60	 142
  60	 147
  60	 150
  60	 155
  60	 166
  60	 172
  60	 182
  60	 184
  60	 186
  60	 189
  60	 206
  60	 207
  60	 209
  60	 210
  60	 223
  60	 224
  60	 225
  60	 237
  60	 247
  61	  67
  61	  97
  61	  98
  61	 101
  61	 109
  61	 127
  61	 145
  61	 150
  61	 153
  61	 211
  61	 242
  62	  72
  62	  77
  62	  79
  62	  94
  62	  96
  62	 100
  62	 105
  62	 108
  62	 120
  62	 126
  62	 134
  62	 135
  62	 137
  62	 140
  62	 149
  62	 150
  62	 164
  62	 175
  62	 193
  62	 200
  62	 227
  62	 241
  63	  87
  63	 101
  63	 107
  63	 112
  63	 125
  63	 151
  63	 164
  63	 170
  63	 177
  63	 178
  63	 185
  63	 203
  63	 208
  63	 236
  63	 238
  63	 242
  64	  71
  64	  72
  64	  79
  64	  84
  64	 103
  64	 106
  64	 109
  64	 132
  64	 134
  64	 147
  64	 151
  64	 168
  64	 181
  64	 182
  64	 197
  64	 206
  64	 214
  64	 228
  64	 232
  64	 234
  65	  68
  65	  74
  65	 113
  65	 127
  65	 135
  65	 140
  65	 168
  65	 179
  65	 224
  66	  67
  66	  71
  66	  80
  66	  98
  66	 131
  66	 141
  66	 142
  66	 163
  66	 164
  66	 178
  66	 184
  66	 202
  66	 212
  66	 247
  67	  68
  67	  78
  67	  85
  67	 104
  67	 105
  67	 135
  67	 151
  67	 154
  67	 174
  67	 181
  67	 185
  67	 190
  67	 191
  67	 198
  67	 209
  67	 212
  67	 224
  67	 235
  68	  85
  68	  90
  68	 105
  68	 107
  68	 111
  68	 116
  68	 132
  68	 136
  68	 186
  68	 205
  68	 209
  68	 213
  68	 220
  68	 247
  69	  77
  69	  78
  69	  81
  69	  94
  69	  95
  69	 100
  69	 110
  69	 146
  69	 152
  69	 161
  69	 175
  69	 176
  69	 214
  69	 222
  69	 223
  69	 236
  70	  85
  70	  93
  70	 112
  70	 114
  70	 115
  70	 116
  70	 171
  70	 177
  70	 188
  70	 192
  70	 199
  70	 228
  70	 239
  70	 244
  71	  73
  71	  74
  71	  92
  71	  93
  71	 108
  71	 118
  71	 119
  71	 146
  71	 158
  71	 166
  71	 183
  71	 192
  71	 199
  71	 223
  71	 224
  71	 228
  71	 234
  71	 240
  71	 241
  71	 243
  71	 244
  72	  73
  72	  81
  72	  85
  72	  99
  72	 106
  72	 124
  72	 136
  72	 144
  72	 147
  72	 148
  72	 155
  72	 162
  72	 165
  72	 171
  72	 172
  72	 206
  72	 211
  72	 213
  72	 215
  72	 220
  72	 226
  72	 229
  72	 231
  73	  96
  73	  99
  73	 125
  73	 132
  73	 140
  73	 151
  73	 154
  73	 159
  73	 203
  73	 210
  73	 214
  73	 221
  73	 222
  73	 223
  73	 242
  74	  83
  74	  84
  74	  85
  74	  86
  74	 107
  74	 113
  74	 158
  74	 168
  74	 170
  74	 177
  74	 179
  74	 203
  74	 218
  74	 223
  74	 237
  74	 242
  74	 245
  75	  92
  75	  95
  75	 114
  75	 120
  75	 125
  75	 129
  75	 147
  75	 150
  75	 160
  75	 167
  75	 168
  75	 169
  75	 172
  75	 184
  75	 187
  75	 194
  75	 209
  75	 212
  75	 230
  75	 234
  75	 236
  75	 240
  75	 247
  76	  78
  76	  95
  76	 100
  76	 113
  76	 114
  76	 119
  76	 134
  76	 144
  76	 167
  76	 168
  76	 175
  76	 181
  76	 186
  76	 195
  76	 202
  76	 230
  76	 236
  76	 242
  77	  81
  77	  84
  77	  97
  77	 104
  77	 105
  77	 108
  77	 118
  77	 121
  77	 129
  77	 141
  77	 146
  77	 149
  77	 158
  77	 160
  77	 161
  77	 165
  77	 179
  77	 188
  77	 189
  77	 193
  77	 213
  77	 230
  77	 233
  77	 234
  77	 246
  78	  80
  78	  83
  78	 131
  78	 141
  78	 152
  78	 163
  78	 164
  78	 168
  78	 178
  78	 182
  78	 192
  78	 219
  78	 221
  78	 227
  78	 230
  78	 231
  78	 239
  78	 244
  79	 114
  79	 121
  79	 128
  79	 135
  79	 138
  79	 166
  79	 167
  79	 173
  79	 196
  79	 204
  79	 206
  79	 208
  79	 209
  79	 222
  79	 239
  79	 241
  80	  85
  80	 108
  80	 153
  80	 160
  80	 163
  80	 177
  80	 195
  80	 198
  80	 212
  80	 222
  80	 235
  80	 247
  81	  84
  81	  95
  81	 107
  81	 135
  81	 141
  81	 160
  81	 169
  81	 172
  81	 177
  81	 179
  81	 190
  81	 195
  81	 197
  81	 198
  81	 203
  81	 211
  81	 222
  81	 226
  81	 234
  81	 237
  81	 248
  82	 104
  82	 109
  82	 129
  82	 165
  82	 166
  82	 199
  82	 203
  82	 226
  82	 235
  82	 242
  83	  84
  83	  94
  83	  97
  83	  99
  83	 101
  83	 104
  83	 107
  83	 109
  83	 112
  83	 115
  83	 143
  83	 155
  83	 163
  83	 183
  83	 189
  83	 190
  83	 191
  83	 192
  83	 217
  83	 219
  83	 226
  83	 231
  83	 239
  84	 110
  84	 115
  84	 121
  84	 126
  84	 144
  84	 149
  84	 152
  84	 153
  84	 182
  84	 195
  84	 203
  84	 204
  84	 205
  84	 217
  84	 228
  84	 236
  84	 242
  85	  91
  85	 116
  85	 120
  85	 125
  85	 131
  85	 140
  85	 146
  85	 152
  85	 153
  85	 175
  85	 202
  85	 215
  85	 231
  85	 238
  85	 239
  85	 247
  86	  94
  86	 101
  86	 111
  86	 119
  86	 124
  86	 137
  86	 157
  86	 165
  86	 198
  86	 229
  86	 235
  86	 237
  86	 245
  86	 246
  87	  93
  87	  95
  87	 100
  87	 123
  87	 135
  87	 141
  87	 146
  87	 154
  87	 157
  87	 185
  87	 228
  87	 237
  88	  91
  88	 105
  88	 133
  88	 149
  88	 153
  88	 170
  88	 172
  88	 177
  88	 183
  88	 210
  88	 231
  88	 236
  88	 238
  88	 240
  88	 243
  89	  92
  89	  96
  89	  99
  89	 119
  89	 123
  89	 128
  89	 139
  89	 143
  89	 151
  89	 154
  89	 180
  89	 183
  89	 191
  89	 237
  89	 242
  89	 246
  90	 109
  90	 136
  90	 139
  90	 143
  90	 146
  90	 156
  90	 161
  90	 162
  90	 164
  90	 167
  90	 183
  90	 192
  90	 193
  90	 220
  90	 223
  90	 227
  90	 239
  90	 245
  91	  98
  91	 101
  91	 113
  91	 127
  91	 134
  91	 150
  91	 151
  91	 161
  91	 168
  92	 100
  92	 152
  92	 167
  92	 168
  92	 180
  92	 185
  92	 187
  92	 198
  92	 215
  92	 232
  92	 239
  92	 247
  93	  94
  93	 116
  93	 120
  93	 132
  93	 135
  93	 147
  93	 150
  93	 167
  93	 175
  93	 176
  93	 197
  93	 207
  93	 215
  93	 216
  93	 218
  93	 221
  93	 247
  94	  96
  94	 117
  94	 119
  94	 150
  94	 158
  94	 165
  94	 170
  94	 180
  94	 193
  94	 196
  94	 203
  94	 208
  94	 209
  94	 210
  94	 212
  94	 220
  94	 227
  94	 238
  94	 244
  94	 246
  95	 107
  95	 125
  95	 134
  95	 155
  95	 174
  95	 175
  95	 192
  95	 208
  95	 221
  95	 229
  95	 248
  96	 101
  96	 104
  96	 115
  96	 119
  96	 142
  96	 159
  96	 170
  96	 185
  96	 194
  96	 201
  96	 202
  96	 215
  96	 216
  96	 229
  96	 240
  96	 241
  97	 100
  97	 124
  97	 141
  97	 145
  97	 149
  97	 150
  97	 178
  97	 192
  97	 194
  97	 224
  97	 239
  97	 246
  98	 105
  98	 107
  98	 114
  98	 122
  98	 132
  98	 134
  98	 141
  98	 143
  98	 147
  98	 166
  98	 172
  98	 173
  98	 188
  98	 189
  98	 198
  98	 202
  98	 211
  98	 219
  98	 246
  99	 130
  99	 137
  99	 163
  99	 169
  99	 177
  99	 183
  99	 187
  99	 190
  99	 192
  99	 198
  99	 206
  99	 207
  99	 216
  99	 236
 100	 119
 100	 126
 100	 129
 100	 136
 100	 137
 100	 156
 100	 159
 100	 168
 100	 177
 100	 183
 100	 187
 100	 208
 100	 222
 100	 230
 100	 234
 100	 239
 101	 102
 101	 132
 101	 135
 101	 146
 101	 148
 101	 152
 101	 156
 101	 189
 101	 198
 101	 203
 101	 207
 101	 214
 101	 220
 101	 224
 101	 226
 101	 227
 101	 241
 101	 243
 101	 245
 102	 117
 102	 130
 102	 137
 102	 145
 102	 150
 102	 171
 102	 179
 102	 182
 102	 191
 102	 193
 102	 194
 102	 214
 102	 218
 102	 227
 102	 231
 102	 244
 103	 126
 103	 148
 103	 152
 103	 160
 103	 168
 103	 180
 103	 216
 103	 221
 103	 223
 103	 231
 103	 240
 103	 242
 104	 107
 104	 121
 104	 130
 104	 140
 104	 143
 104	 155
 104	 207
 104	 208
 104	 221
 104	 222
 104	 241
 104	 243
 105	 119
 105	 123
 105	 126
 105	 144
 105	 151
 105	 161
 105	 167
 105	 169
 105	 181
 105	 183
 105	 184
 105	 191
 105	 203
 105	 209
 105	 219
 105	 232
 106	 107
 106	 109
 106	 116
 106	 117
 106	 132
 106	 145
 106	 158
 106	 164
 106	 169
 106	 170
 106	 177
 106	 181
 106	 185
 106	 238
 107	 108
 107	 112
 107	 140
 107	 145
 107	 146
 107	 159
 107	 161
 107	 164
 107	 173
 107	 180
 107	 193
 107	 197
 107	 210
 107	 211
 107	 214
 107	 233
 107	 234
 107	 245
 108	 109
 108	 111
 108	 113
 108	 121
 108	 123
 108	 126
 108	 127
 108	 138
 108	 159
 108	 186
 108	 195
 108	 210
 108	 237
 109	 126
 109	 175
 109	 184
 109	 186
 109	 194
 109	 198
 109	 217
 109	 221
 109	 228
 109	 231
 109	 236
 110	 112
 110	 125
 110	 129
 110	 131
 110	 140
 110	 148
 110	 152
 110	 153
 110	 182
 110	 195
 110	 220
 110	 224
 110	 243
 111	 115
 111	 134
 111	 139
 111	 141
 111	 182
 111	 185
 111	 196
 111	 197
 111	 209
 111	 212
 111	 241
 112	 124
 112	 126
 112	 142
 112	 152
 112	 154
 112	 155
 112	 166
 112	 173
 112	 196
 112	 200
 112	 206
 112	 224
 112	 232
 113	 125
 113	 145
 113	 169
 113	 207
 113	 213
 113	 214
 113	 221
 113	 247
 114	 117
 114	 124
 114	 135
 114	 137
 114	 140
 114	 143
 114	 154
 114	 155
 114	 158
 114	 180
 114	 183
 114	 186
 114	 187
 114	 215
 114	 216
 114	 224
 114	 228
 115	 118
 115	 119
 115	 133
 115	 143
 115	 165
 115	 177
 115	 178
 115	 192
 115	 203
 115	 234
 115	 238
 116	 132
 116	 137
 116	 141
 116	 144
 116	 145
 116	 148
 116	 157
 116	 162
 116	 183
 116	 185
 116	 214
 116	 224
 116	 231
 116	 238
 117	 120
 117	 125
 117	 132
 117	 151
 117	 164
 117	 170
 117	 171
 117	 188
 117	 195
 117	 201
 117	 203
 117	 207
 117	 237
 118	 146
 118	 154
 118	 162
 118	 170
 118	 180
 118	 206
 118	 207
 118	 214
 118	 230
 119	 131
 119	 133
 119	 136
 119	 144
 119	 158
 119	 173
 119	 191
 119	 196
 119	 218
 119	 222
 119	 223
 119	 241
 119	 245
 119	 246
 120	 132
 120	 139
 120	 142
 120	 144
 120	 152
 120	 163
 120	 192
 120	 204
 120	 223
 120	 242
 121	 122
 121	 131
 121	 147
 121	 165
 121	 170
 121	 178
 121	 184
 121	 217
 121	 227
 121	 236
 121	 243
 121	 247
 122	 128
 122	 132
 122	 135
 122	 189
 122	 191
 122	 210
 122	 228
 122	 234
 123	 128
 123	 129
 123	 152
 123	 169
 123	 180
 123	 201
 123	 203
 123	 215
 123	 223
 123	 226
 123	 231
 123	 236
 124	 128
 124	 131
 124	 155
 124	 158
 124	 181
 124	 191
 124	 215
 124	 232
 124	 245
 125	 147
 125	 149
 125	 159
 125	 160
 125	 165
 125	 175
 125	 186
 125	 194
 125	 201
 125	 207
 125	 210
 125	 217
 125	 230
 125	 241
 126	 127
 126	 150
 126	 156
 126	 165
 126	 171
 126	 191
 126	 202
 126	 204
 126	 213
 126	 214
 126	 216
 126	 230
 127	 138
 127	 141
 127	 154
 127	 166
 127	 172
 127	 175
 127	 183
 127	 185
 127	 191
 127	 220
 127	 231
 127	 233
 127	 242
 128	 129
 128	 132
 128	 141
 128	 143
 128	 144
 128	 151
 128	 180
 128	 205
 128	 206
 128	 216
 128	 233
 129	 147
 129	 158
 129	 161
 129	 166
 129	 170
 129	 179
 129	 196
 129	 207
 129	 224
 129	 236
 130	 137
 130	 141
 130	 143
 130	 149
 130	 158
 130	 182
 130	 191
 130	 196
 130	 211
 130	 217
 130	 220
 130	 228
 130	 239
 130	 243
 130	 244
 131	 136
 131	 140
 131	 157
 131	 168
 131	 179
 131	 211
 131	 218
 131	 221
 131	 245
 132	 148
 132	 149
 132	 167
 132	 177
 132	 195
 132	 201
 132	 202
 132	 234
 132	 239
 133	 135
 133	 137
 133	 144
 133	 148
 133	 185
 133	 188
 133	 189
 133	 196
 133	 197
 133	 208
 133	 212
 133	 216
 133	 218
 133	 224
 133	 233
 133	 240
 133	 244
 134	 155
 134	 158
 134	 159
 134	 169
 134	 177
 134	 226
 134	 231
 134	 232
 134	 240
 135	 136
 135	 167
 135	 172
 135	 186
 135	 206
 135	 222
 136	 149
 136	 151
 136	 172
 136	 184
 136	 205
 136	 220
 137	 139
 137	 149
 137	 161
 137	 179
 137	 184
 137	 192
 137	 209
 137	 214
 137	 232
 138	 147
 138	 154
 138	 162
 138	 169
 138	 176
 138	 180
 138	 195
 138	 203
 138	 204
 138	 208
 138	 218
 138	 227
 138	 228
 138	 230
 138	 240
 138	 243
 139	 141
 139	 146
 139	 149
 139	 151
 139	 180
 139	 181
 139	 209
 139	 216
 139	 220
 139	 230
 140	 153
 140	 159
 140	 163
 140	 176
 140	 182
 140	 186
 140	 203
 140	 206
 140	 209
 140	 221
 140	 228
 140	 232
 140	 233
 140	 237
 140	 245
 141	 157
 141	 159
 141	 166
 141	 177
 141	 189
 141	 192
 141	 219
 141	 220
 141	 226
 141	 229
 141	 232
 141	 240
 141	 241
 142	 153
 142	 155
 142	 157
 142	 158
 142	 190
 142	 198
 142	 200
 142	 210
 142	 213
 142	 229
 142	 240
 143	 152
 143	 153
 143	 159
 143	 162
 143	 166
 143	 168
 143	 176
 143	 180
 143	 184
 143	 185
 143	 205
 143	 225
 143	 230
 143	 242
 144	 146
 144	 150
 144	 153
 144	 173
 144	 187
 144	 196
 144	 202
 144	 204
 144	 209
 144	 210
 144	 220
 144	 223
 144	 225
 144	 228
 144	 239
 144	 248
 145	 156
 145	 168
 145	 176
 145	 181
 145	 182
 145	 189
 145	 195
 145	 200
 145	 206
 145	 235
 146	 159
 146	 162
 146	 210
 146	 227
 147	 171
 147	 172
 147	 179
 147	 190
 147	 191
 147	 201
 147	 203
 147	 207
 147	 210
 147	 211
 147	 230
 147	 231
 147	 238
 147	 244
 148	 165
 148	 173
 148	 183
 148	 184
 148	 205
 148	 207
 148	 209
 148	 220
 148	 228
 148	 230
 149	 155
 149	 163
 149	 175
 149	 178
 149	 183
 149	 185
 149	 193
 149	 218
 149	 238
 149	 243
 149	 246
 150	 159
 150	 162
 150	 180
 150	 182
 150	 184
 150	 189
 150	 212
 150	 225
 150	 226
 150	 234
 150	 235
 150	 246
 151	 173
 151	 176
 151	 194
 151	 201
 151	 220
 151	 221
 151	 223
 151	 226
 151	 231
 151	 244
 152	 183
 152	 187
 152	 189
 152	 197
 152	 218
 152	 220
 152	 236
 152	 246
 153	 155
 153	 158
 153	 161
 153	 177
 153	 185
 153	 192
 154	 163
 154	 166
 154	 178
 154	 184
 154	 219
 154	 230
 154	 232
 154	 238
 154	 241
 154	 243
 155	 166
 155	 169
 155	 172
 155	 192
 155	 198
 155	 200
 155	 201
 155	 212
 155	 222
 155	 225
 155	 227
 155	 231
 155	 234
 155	 240
 155	 244
 156	 179
 156	 185
 156	 186
 156	 204
 156	 241
 157	 158
 157	 177
 157	 181
 157	 215
 157	 241
 157	 242
 157	 245
 158	 168
 158	 179
 158	 186
 158	 200
 158	 207
 158	 230
 158	 246
 158	 247
 159	 165
 159	 175
 159	 176
 159	 177
 159	 189
 159	 197
 159	 198
 159	 215
 159	 216
 159	 219
 159	 226
 159	 234
 159	 235
 159	 239
 159	 242
 159	 248
 160	 173
 160	 197
 160	 206
 160	 218
 160	 219
 160	 224
 160	 236
 160	 237
 160	 238
 161	 197
 161	 200
 161	 211
 161	 221
 161	 233
 161	 237
 161	 238
 161	 247
 162	 183
 162	 194
 162	 203
 162	 213
 162	 219
 162	 225
 162	 234
 162	 237
 162	 241
 163	 166
 163	 179
 163	 242
 163	 244
 164	 168
 164	 173
 164	 176
 164	 207
 164	 216
 164	 218
 164	 242
 164	 246
 165	 166
 165	 171
 165	 182
 165	 190
 165	 199
 165	 200
 165	 207
 165	 219
 165	 234
 165	 236
 165	 239
 165	 247
 166	 182
 166	 191
 166	 192
 166	 195
 166	 202
 166	 205
 166	 212
 166	 218
 166	 221
 166	 223
 166	 231
 166	 238
 167	 168
 167	 179
 167	 182
 167	 205
 167	 222
 167	 224
 167	 227
 167	 238
 168	 171
 168	 173
 168	 176
 168	 180
 168	 183
 168	 187
 168	 205
 168	 211
 168	 248
 169	 175
 169	 177
 169	 211
 169	 219
 169	 221
 169	 234
 169	 237
 169	 238
 169	 240
 170	 186
 170	 214
 170	 221
 170	 241
 170	 242
 171	 173
 171	 175
 171	 177
 171	 180
 171	 181
 171	 188
 171	 193
 171	 198
 171	 200
 171	 221
 172	 182
 172	 185
 172	 189
 172	 195
 172	 196
 172	 203
 172	 223
 172	 230
 172	 232
 172	 233
 172	 245
 173	 175
 173	 201
 173	 203
 173	 209
 173	 213
 173	 229
 173	 232
 173	 242
 173	 243
 174	 179
 174	 213
 174	 218
 174	 220
 174	 224
 174	 233
 174	 240
 174	 247
 174	 248
 175	 176
 175	 181
 175	 201
 175	 209
 176	 177
 176	 196
 176	 200
 176	 210
 176	 218
 176	 227
 176	 232
 176	 233
 177	 191
 177	 199
 177	 222
 177	 223
 177	 239
 178	 194
 178	 199
 178	 202
 178	 207
 178	 218
 178	 228
 178	 232
 178	 237
 178	 241
 179	 181
 179	 185
 179	 201
 179	 202
 179	 221
 179	 226
 179	 228
 179	 231
 179	 240
 180	 181
 180	 191
 180	 208
 180	 212
 180	 216
 180	 226
 180	 227
 180	 235
 180	 237
 180	 247
 181	 186
 181	 223
 181	 232
 181	 233
 182	 183
 182	 196
 182	 210
 182	 213
 182	 228
 182	 232
 182	 242
 182	 244
 182	 248
 183	 189
 183	 195
 183	 197
 183	 200
 183	 203
 183	 219
 184	 190
 184	 203
 184	 212
 184	 228
 184	 243
 185	 200
 185	 207
 185	 208
 185	 213
 185	 214
 185	 218
 185	 219
 185	 221
 185	 223
 185	 224
 185	 238
 185	 241
 186	 193
 186	 230
 186	 245
 186	 247
 187	 209
 187	 210
 187	 229
 188	 192
 188	 203
 188	 212
 188	 225
 188	 230
 188	 234
 188	 237
 188	 239
 188	 246
 189	 198
 189	 210
 189	 214
 189	 233
 189	 240
 190	 204
 190	 207
 190	 221
 190	 237
 190	 241
 190	 242
 191	 206
 191	 228
 191	 233
 191	 247
 192	 199
 192	 228
 192	 229
 192	 232
 192	 235
 192	 236
 193	 195
 193	 203
 193	 212
 193	 213
 193	 227
 193	 242
 193	 246
 193	 248
 194	 201
 194	 208
 194	 242
 194	 246
 195	 206
 195	 210
 195	 224
 195	 226
 195	 229
 195	 239
 196	 225
 196	 232
 196	 233
 196	 245
 197	 199
 197	 205
 197	 213
 197	 220
 197	 221
 197	 222
 197	 225
 197	 235
 197	 237
 197	 246
 198	 224
 199	 206
 199	 207
 199	 212
 199	 215
 199	 216
 199	 228
 199	 232
 199	 244
 199	 248
 200	 204
 200	 217
 200	 231
 200	 242
 200	 244
 201	 202
 201	 225
 201	 231
 201	 232
 202	 207
 202	 211
 202	 215
 202	 223
 203	 215
 203	 216
 203	 223
 203	 235
 203	 239
 204	 209
 204	 222
 204	 229
 205	 212
 205	 227
 205	 248
 206	 215
 206	 218
 206	 226
 207	 221
 207	 243
 207	 246
 208	 217
 209	 216
 210	 213
 210	 219
 211	 228
 211	 240
 212	 217
 212	 220
 212	 227
 212	 239
 213	 217
 213	 233
 213	 243
 213	 246
 214	 218
 214	 233
 215	 234
 215	 239
 215	 243
 216	 217
 216	 233
 217	 223
 217	 227
 217	 233
 217	 236
 218	 238
 218	 247
 220	 225
 220	 226
 220	 231
 220	 240
 220	 248
 221	 237
 222	 247
 223	 229
 223	 234
 223	 235
 224	 239
 224	 247
 226	 229
 226	 230
 227	 232
 227	 244
 227	 245
 228	 246
 228	 247
 229	 233
 229	 234
 229	 238
 230	 234
 231	 237
 232	 234
 232	 242
 233	 236
 233	 242
 234	 242
 235	 236
 235	 237
 235	 240
 235	 247
 236	 245
 237	 242
 238	 244
 238	 248
 242	 243
 243	 246
 244	 245
 246	 248
;
